c ---- [ banner ] ------------------------------------------------------------
c
c Kissat SAT Solver
c 
c Copyright (c) 2021-2024 Armin Biere University of Freiburg
c Copyright (c) 2019-2021 Armin Biere Johannes Kepler University Linz
c 
c Version 4.0.2 unknown
c gcc (GCC) 13.3.0 -W -Wall -O3 -march=native -funroll-loops -DNDEBUG
c Mon Feb 24 08:53:02 AM CET 2025 Linux main0 6.6.79 x86_64
c
c ---- [ parsing ] -----------------------------------------------------------
c
c opened and reading DIMACS file:
c
c   instances/0043cfdde474fa37dfeb5ce5952d22f6-unif-c2520-v600-s1111033636.cnf
c
c parsed 'p cnf 600 2520' header
c closing input after reading 37618 bytes (37 KB)
c finished parsing after 0.00 seconds
c
c ---- [ solving ] -----------------------------------------------------------
c
c seconds switched rate     size/glue tier1 binary      remaining
c        MB reductions conflicts size  tier2  irredundant
c         level restarts redundant glue  trail      variables
c
c *  0.00  3 0 0 0  0 0   0   0 0.0 0 0 0 0 0%   0 2520 600 100%
c (  0.00  3 0 0 0  0 0   0   0 0.0 0 0 0 0 0%   0 2520 600 100%
c .  0.00  3 0 0 0  0 0   0   0 0.0 0 0 0 0 0%   0 2520 600 100%
c e  0.02  3 0 0 0  0 0   0   0 0.0 0 0 0 0 0%   0 2514 574 96%
c )  0.02  3 0 0 0  0 0   0   0 0.0 0 0 0 0 0%   0 2514 574 96%
c {  0.02  3 0 0 0  0 0   0   0 0.0 0 0 2 6 0%   0 2514 574 96%
c -  0.03  4 42 0 1  2 2 1000 626 1.6 27 17 9 25 37%   0 2514 574 96%
c }  0.03  4 42 1 1  2 2 1000 626 1.6 27 17 9 25 37%   0 2514 574 96%
c [  0.03  4 0 1 1  2 0 1000 626 0.0 0 0 2 6 0%   0 2514 574 96%
c B  0.03  4 44 1 1  2 10 1001 627 2.3 25 11 2 6 38%   0 2514 574 96%
c ]  0.04  4 45 2 1  2 1 1855 1476 1.5 32 21 10 31 42%   0 2514 574 96%
c {  0.04  4 42 2 1  2 2 1855 1476 1.6 27 17 9 25 37%   0 2514 574 96%
c -  0.04  4 42 2 2  2 2 2002 1523 1.6 27 17 8 25 37%   0 2514 574 96%
c }  0.05  4 37 3 2  9 2 2855 2365 1.6 26 16 8 25 37%   0 2514 574 96%
c [  0.05  4 45 3 2  9 1 2855 2365 1.5 32 21 10 31 42%   0 2514 574 96%
c W  0.05  4 45 3 2  9 1 2855 2365 1.5 32 21 10 31 42%   0 2514 574 96%
c -  0.06  4 52 3 3  9 1 3416 2605 1.4 34 24 9 35 42%   0 2514 574 96%
c u  0.06  4 53 3 3  9 1 3649 2427 1.4 34 24 9 35 42%   0 2514 574 96%
c v  0.07  4 53 3 3  9 1 3649 2387 1.4 34 24 9 35 42%   0 2514 574 96%
c w  0.07  4 53 3 3  9 1 3649 2387 1.4 34 24 9 35 42%   0 2514 574 96%
c
c seconds  switched rate       size/glue  tier1    binary      remaining
c        MB reductions conflicts     size   tier2    irredundant
c         level restarts  redundant     glue    trail      variables
c
c ]  0.07  4 54 4 3  9 1 3847 2584 1.4 35 24 9 35 42%   0 2514 574 96%
c {  0.07  4 37 4 3  9 2 3847 2584 1.6 26 16 8 25 37%   0 2514 574 96%
c -  0.09  5 36 4 4 55 2 5148 3290 1.6 25 16 8 24 37%   0 2514 574 96%
c }  0.10  5 35 5 4 77 2 6200 4327 1.7 26 15 8 24 37%   0 2514 574 96%
c [  0.10  5 54 5 4 77 1 6200 4327 1.4 35 24 9 35 42%   0 2514 574 96%
c I  0.10  5 54 5 4 77 1 6200 4327 1.4 35 24 9 35 42%   0 2514 574 96%
c -  0.11  5 51 5 5 77 1 7148 4399 1.5 34 23 9 34 41%   0 2514 574 96%
c ]  0.13  5 49 6 5 79 1 8479 5679 1.4 34 24 9 34 40%   0 2514 574 96%
c {  0.13  5 35 6 5 79 2 8479 5679 1.7 26 15 8 24 37%   0 2514 574 96%
c -  0.14  5 35 6 6 104 2 9385 5315 1.6 25 15 8 23 37%   0 2514 574 96%
c o  0.15  5 35 6 6 114 2 10150 6071 1.6 25 15 8 23 37%   0 2514 574 96%
c u  0.18  5 35 6 6 149 2 11241 6764 1.7 25 15 7 23 37%   0 2514 574 96%
c v  0.18  5 35 6 6 149 2 11241 6676 1.7 25 15 7 23 37%   0 2514 574 96%
c w  0.19  5 35 6 6 149 2 11241 6676 1.7 25 15 7 23 37%   0 2514 574 96%
c -  0.21  5 35 6 7 174 2 11834 5903 1.6 25 15 7 22 37%   0 2514 574 96%
c }  0.22  5 35 7 7 175 2 12549 6613 1.7 25 15 7 22 37%   0 2514 574 96%
c [  0.22  5 49 7 7 175 1 12549 6613 1.4 34 24 9 34 40%   0 2514 574 96%
c B  0.22  5 49 7 7 175 1 12549 6613 1.4 34 24 9 34 40%   0 2514 574 96%
c -  0.25  6 50 7 8 176 1 14480 6615 1.4 35 25 8 35 40%   0 2514 574 96%
c -  0.30  6 50 7 9 178 1 17311 6911 1.4 36 25 7 34 40%   0 2514 574 96%
c
c seconds  switched  rate        size/glue  tier1    binary      remaining
c        MB reductions conflicts       size   tier2    irredundant
c         level restarts    redundant     glue    trail      variables
c
c ]  0.30  6 50 8 9 178 1 17332 6932 1.4 36 25 7 34 40%   0 2514 574 96%
c {  0.30  6 35 8 9 178 2 17332 6932 1.7 25 15 7 22 37%   0 2514 574 96%
c e  0.31  6 35 8 9 264 2 18244 7839 1.7 25 15 7 22 37%   0 2510 570 95%
c ^  0.31  6 35 8 9 264 2 18244 7839 1.7 25 15 7 22 37%   0 2510 570 95%
c o  0.35  6 36 8 9 386 3 20189 9408 1.6 25 15 7 22 37%   0 2510 570 95%
c -  0.35  6 36 8 10 392 3 20311 7486 1.6 25 15 6 22 37%   0 2510 570 95%
c u  0.40  6 35 8 10 522 3 23028 9881 1.6 25 15 6 22 37%   0 2510 570 95%
c v  0.41  7 35 8 10 522 3 23028 9803 1.6 25 15 6 22 37%   0 2510 570 95%
c w  0.42  7 35 8 10 522 3 23028 9803 1.6 25 15 6 22 37%   0 2510 570 95%
c -  0.43  6 35 8 11 560 3 23473 8359 1.6 25 15 6 22 37%   0 2510 570 95%
c }  0.43  6 35 9 11 560 3 23492 8378 1.6 25 15 6 22 37%   0 2510 570 95%
c [  0.43  6 50 9 11 560 1 23492 8378 1.4 36 25 7 34 40%   0 2510 570 95%
c W  0.43  6 50 9 11 560 1 23492 8378 1.4 36 25 7 34 40%   0 2510 570 95%
c -  0.48  6 47 9 12 562 1 26789 9074 1.4 35 24 6 32 40%   0 2510 570 95%
c -  0.53  6 45 9 13 565 1 30253 9318 1.5 35 24 6 30 40%   0 2510 570 95%
c O  0.55  6 45 9 13 565 1 31021 10062 1.5 35 24 6 30 40%   0 2510 570 95%
c ]  0.56  7 44 10 13 565 1 31642 10654 1.5 34 23 6 30 40%   0 2510 570 95%
c {  0.56  7 35 10 13 565 3 31642 10654 1.6 25 15 6 22 37%   0 2510 570 95%
c -  0.60  7 35 10 14 674 3 33858 9795 1.6 25 15 5 21 37%   0 2510 570 95%
c ^  0.65  6 35 10 14 787 3 36493 12396 1.7 25 15 5 21 37%   0 2510 570 95%
c
c seconds   switched   rate         size/glue  tier1    binary      remaining
c        MB   reductions conflicts        size   tier2    irredundant
c         level   restarts     redundant     glue    trail      variables
c
c -  0.68  7 34 10 15 846 3 37601 10624 1.7 25 15 5 21 37%   0 2510 570 95%
c u  0.72  7 34 10 15 937 3 39271 11211 1.7 25 15 5 21 37%   0 2510 570 95%
c v  0.74  7 34 10 15 937 3 39271 10929 1.7 25 15 5 21 37%   0 2510 570 95%
c w  0.74  7 34 10 15 937 3 39271 10919 1.7 25 15 5 21 37%   0 2510 570 95%
c }  0.77  7 35 11 15 1026 3 40272 11916 1.7 25 15 5 21 37%   0 2510 570 95%
c [  0.77  7 44 11 15 1026 1 40272 11916 1.5 34 23 6 30 40%   0 2510 570 95%
c B  0.78  7 44 11 15 1026 1 40782 12419 1.5 34 23 6 30 40%   0 2510 570 95%
c o  0.78  7 44 11 15 1026 1 40782 12419 1.5 34 23 6 30 40%   0 2510 570 95%
c -  0.79  7 44 11 16 1027 1 41474 10091 1.5 34 23 6 30 40%   0 2510 570 95%
c -  0.85  7 45 11 17 1030 1 45475 9706 1.5 36 25 6 31 41%   0 2510 570 95%
c -  0.92  7 45 11 18 1032 1 49599 9331 1.4 36 25 6 32 41%   0 2510 570 95%
c ]  0.97  7 45 12 18 1032 1 51950 11577 1.4 36 25 6 31 40%   0 2510 570 95%
c {  0.97  7 35 12 18 1032 3 51950 11577 1.7 25 15 5 21 37%   0 2510 570 95%
c -  1.01  7 35 12 19 1106 3 53841 10092 1.7 25 15 5 20 37%   0 2510 570 95%
c -  1.10  7 35 12 20 1349 3 58199 11288 1.7 25 15 4 20 37%   0 2510 570 95%
c u  1.16  6 35 12 20 1471 3 60187 11856 1.6 25 15 4 20 37%   0 2510 570 95%
c v  1.18  7 35 12 20 1471 3 60187 11768 1.6 25 15 4 20 37%   0 2510 570 95%
c w  1.19  8 35 12 20 1471 3 60187 11763 1.6 25 15 4 20 37%   0 2510 570 95%
c -  1.26  7 35 12 21 1605 3 62672 10889 1.6 25 15 4 20 37%   0 2510 570 95%
c }  1.27  7 35 13 21 1624 3 63429 11638 1.6 25 15 4 20 37%   0 2510 570 95%
c
c seconds   switched    rate         size/glue  tier1    binary      remaining
c        MB   reductions  conflicts        size   tier2    irredundant
c         level    restarts     redundant     glue    trail      variables
c
c [  1.27  7 45 13 21 1624 1 63429 11638 1.4 36 25 6 31 40%   0 2510 570 95%
c W  1.27  6 45 13 21 1624 1 63429 11638 1.4 36 25 6 31 40%   0 2510 570 95%
c ]  1.27  6 45 13 21 1624 1 63429 11638 1.4 36 25 6 31 40%   0 2510 570 95%
c 1  1.27  6 35 13 21 1624 3 63429 11638 1.6 25 15 4 20 37%   0 2510 570 95%
c
c ---- [ result ] ------------------------------------------------------------
c
s SATISFIABLE
v 1 2 -3 4 -5 -6 -7 -8 -9 -10 -11 -12 13 14 15 -16 17 -18 -19 20 -21 -22 -23
v -24 -25 26 -27 -28 -29 -30 31 32 -33 -34 35 36 -37 -38 39 -40 41 42 -43 -44
v -45 -46 47 -48 -49 -50 51 52 -53 -54 55 56 -57 -58 -59 60 -61 -62 63 -64 -65
v 66 -67 -68 69 -70 71 -72 73 -74 -75 -76 -77 -78 -79 -80 -81 82 -83 -84 85
v -86 87 88 -89 -90 -91 -92 93 -94 95 96 -97 98 -99 -100 -101 -102 103 -104
v 105 -106 -107 -108 -109 110 -111 112 113 114 115 -116 117 118 119 120 121
v -122 -123 -124 -125 126 -127 -128 -129 130 131 132 -133 -134 -135 136 137
v 138 -139 140 141 142 -143 144 -145 -146 147 -148 149 150 -151 -152 153 -154
v -155 156 -157 -158 159 160 -161 -162 163 164 165 166 -167 -168 169 -170 171
v 172 -173 -174 175 -176 177 178 -179 -180 -181 -182 183 -184 185 186 187 -188
v 189 -190 191 192 193 194 -195 -196 -197 198 -199 200 -201 -202 -203 -204 205
v -206 207 -208 -209 210 -211 -212 213 -214 215 -216 -217 -218 219 -220 221
v 222 -223 -224 -225 226 -227 -228 229 -230 -231 232 233 -234 235 236 -237
v -238 -239 -240 241 242 243 -244 245 246 247 -248 249 -250 -251 252 253 -254
v -255 -256 -257 258 -259 -260 261 262 263 264 265 -266 -267 268 -269 -270 271
v 272 273 274 275 276 -277 -278 -279 -280 -281 282 -283 -284 285 286 -287 -288
v 289 290 -291 292 -293 -294 295 -296 297 -298 299 300 301 -302 -303 -304 305
v -306 307 -308 309 -310 -311 312 313 314 315 -316 317 318 -319 320 -321 322
v 323 -324 325 -326 -327 -328 329 330 -331 332 333 334 335 336 337 -338 -339
v -340 -341 -342 -343 -344 345 346 -347 -348 -349 350 -351 352 353 -354 355
v -356 357 358 359 360 361 362 -363 364 -365 366 367 368 -369 -370 371 372 373
v 374 -375 376 377 378 379 -380 -381 -382 -383 -384 -385 -386 -387 388 -389
v -390 -391 392 393 394 395 396 397 -398 -399 -400 401 402 -403 404 -405 406
v 407 408 409 410 -411 -412 -413 -414 415 416 417 -418 419 -420 -421 -422 423
v 424 -425 426 427 428 429 -430 -431 -432 433 -434 -435 -436 437 -438 -439 440
v 441 -442 443 444 445 446 447 448 449 -450 451 -452 -453 -454 455 -456 457
v -458 -459 -460 461 462 -463 -464 465 -466 467 -468 -469 -470 471 472 -473
v 474 -475 476 477 -478 479 -480 -481 -482 483 -484 485 -486 487 -488 489 490
v -491 -492 -493 494 -495 496 497 -498 499 -500 -501 502 -503 -504 -505 506
v -507 508 -509 510 -511 512 513 514 515 516 -517 -518 519 -520 521 -522 523
v -524 -525 526 527 -528 529 -530 531 -532 -533 -534 535 536 537 -538 539 540
v -541 542 -543 -544 545 546 547 548 549 550 -551 552 -553 -554 -555 556 -557
v 558 -559 560 -561 562 -563 564 -565 566 567 -568 569 570 571 572 -573 574
v 575 576 577 578 579 580 581 582 583 584 585 586 -587 -588 -589 -590 591 592
v 593 -594 -595 596 597 598 599 600 0
c
c ---- [ profiling ] ---------------------------------------------------------
c
c           1.10   86.54 %  search
c           0.66   51.73 %  focused
c           0.44   34.81 %  stable
c           0.16   12.73 %  probe
c           0.15   11.95 %  simplify
c           0.11    8.62 %  vivify
c           0.04    3.38 %  sweep
c           0.02    1.43 %  preprocess
c           0.02    1.42 %  reduce
c           0.01    0.47 %  substitute
c           0.00    0.27 %  walking
c           0.00    0.24 %  eliminate
c           0.00    0.13 %  fastel
c           0.00    0.12 %  congruence
c           0.00    0.10 %  factor
c           0.00    0.04 %  parse
c           0.00    0.03 %  transitive
c           0.00    0.02 %  lucky
c           0.00    0.02 %  subsume
c           0.00    0.01 %  backbone
c           0.00    0.00 %  extend
c =============================================
c           1.27  100.00 %  total
c
c ---- [ statistics ] --------------------------------------------------------
c
c conflicts:                            63429            49829.80 per second
c decisions:                           150355                2.37 per conflict
c eliminated:                              30                5 %  variables
c fast_eliminated:                         26               87 %  eliminated
c propagations:                       5298090          4162178    per second
c reductions:                              21             3020    interval
c reordered:                                3            21143    interval
c rephased:                                 8             7929    interval
c restarts:                              1624               39    interval
c switched:                                13             4879    interval
c vivified:                              4782               41 %  checks
c walks:                                    3            21143    interval
c
c ---- [ glue usage ] --------------------------------------------------------
c
c focused glue 4    used  4006 clauses  5.00% accumulated 51.04% tier1
c focused glue 5    used  3307 clauses  4.13% accumulated 55.17%
c focused glue 6-18 used 26025 clauses 32.51% accumulated 87.68%
c focused glue 19   used  1205 clauses  1.51% accumulated 89.18%
c focused glue 20   used  1106 clauses  1.38% accumulated 90.56% tier2
c
c stable glue 6    used  5644 clauses  5.10% accumulated 52.65% tier1
c stable glue 7    used  4192 clauses  3.79% accumulated 56.44%
c stable glue 8-29 used 35369 clauses 31.95% accumulated 88.39%
c stable glue 30   used   891 clauses  0.80% accumulated 89.19%
c stable glue 31   used   954 clauses  0.86% accumulated 90.05% tier2
c
c ---- [ resources ] ---------------------------------------------------------
c
c maximum-resident-set-size:          7942144 bytes          8 MB
c process-time:                             1s               1.27 seconds
c
c ---- [ shutting down ] -----------------------------------------------------
c
c exit 10
